outputs/case_146.model.txt
internal_control_includes_audit_committee_management = False
audit_committee_established = False
dismiss_manager_or_staff = False
dismiss_director_or_supervisor_or_suspend_duties = False
other_necessary_measures = False
restrict_business_scope = False
submit_false_or_incomplete_business_or_financial_reports = False
internal_control_system_established = True
fail_to_confirm_suitability_for_financial_consumers = False
internal_control_system_reviewed_and_revised = True
premium_collection_and_management = True
collect_illegal_fees_or_benefits = False
unauthorized_use_of_insurance_related_advertisement = False
internal_control_executed = True
agent_misconduct_49 = False
convicted_of_fraud_or_breach_of_trust_or_forgery = False
internal_control_established = True
fail_to_appoint_agent_upon_agent_resignation = False
hold_positions_in_insurance_or_association_while_registered_as_agent = False
other_matters_designated_by_authority = True
unauthorized_insurance_business_operation = False
unauthorized_insurance_agent_operation = False
misappropriation_or_embezzlement_of_premiums_or_claims = False
transfer_policy_documents_to_unauthorized_agents = False
violation_flag = False
fail_to_cancel_license_within_deadline = False
conceal_important_insurance_contract_info = False
solicitation_handling_system_executed = True
spread_false_information_disturbing_financial_order = False
solicitation_document_control_and_storage = True
customer_needs_and_suitability_assessment = True
violate_165_1 = False
other_violations_of_rules_or_laws = False
insurance_product_information_disclosure = True
induce_clients_to_cancel_or_terminate_contracts = False
other_behaviors_damaging_insurance_image = False
compensation_and_risk_linkage = True
soliciting_property_insurance = False
solicitation_handling_exclusion_property_insurance_7 = True
personnel_qualification_and_management = True
unauthorized_suspension_or_resumption_of_business = False
fail_to_report_to_agent_trade_association = False
violation_occurred = False
illegal_insurance_claims = False
solicitation_handling_minimum_requirements_7 = True
penalty_measures = False
pay_commission_to_non_actual_solicitors = False
improper_inducement_to_cancel_or_transfer_policy = False
violation_167_3 = False
violation_167_2 = False
advertisement_and_promotion_management = True
unauthorized_use_of_license = False
audit_committee_control_6 = True
violate_163_7 = False
internal_control_requirements_6 = True
customer_complaints_handling = True
audit_system_executed = True
sell_unapproved_foreign_policy_discount_products = False
audit_system_established = True
violate_163_5_applied_165_1 = False
employ_unqualified_insurance_solicitors = False
violate_163_4_financial_or_business_management = False
authorize_third_party_to_operate = False
improper_coercion_or_inducement = False
misleading_advertisement_or_promotion = False
false_report_on_license_application = False
truthful_solicitation_report_management = True
penalty = False
solicitation_handling_system_established = True
operate_outside_license_scope = False
fail_to_fill_solicitation_report_truthfully = False
pre_submission_check_mechanism = True